2856
220
219
218
215
214
211
210
230
251
250
247
246
245
244
241
240
239
238
237
236
235
234
233
232
231
229
228
227
226
225
224
223
222
221
195
194
197
196
201
198
199
145
146
147
149
150
178
151
152
156
153
155
154
129
130
131
132
133
18
19
20
21
128
127
126
124
123
122
121
120
119
157
158
159
160
177
176
179
180
181
182
183
184
186
193
192
191
190
189
188
187
185
162
161
175
174
163
164
165
166
167
168
169
170
172
171
106
105
104
103
102
101
100
99
98
94
95
96
97
93
92
91
90
89
109
110
108
173
107
111
112
88
87
113
114
86
116
115
117
118
61
62
63
64
66
67
65
85
84
83
82
81
80
79
78
77
75
76
74
73
72
71
70
69
68
58
57
56
55
54
53
52
51
50
49
48
47
46
45
44
59
60
43
42
41
40
39
38
37
36
35
34
33
125
30
31
32
29
28
27
26
22
25
23
24
14
13
12
15
17
16
271
272
273
274
275
9
11
10
8
7
6
5
276
277
4
278
279
3
0
1
2
242
243
248
249
252
209
253
254
255
257
256
258
259
260
261
262
263
264
265
267
268
269
270
134
135
136
137
138
266
140
139
148
141
142
143
144
200
202
203
204
205
206
208
207
212
213
216
217
